
List of user-set options:

                                    Name   Value                used
                        file_print_level = 5                     yes
                   hessian_approximation = limited-memory        yes
                           linear_solver = mumps                 yes
                                max_iter = 100                   yes
                             output_file = IPOPT.out             yes
                             print_level = 5                     yes
                      print_user_options = yes                   yes
                                      sb = yes                   yes
                                     tol = 0.01                  yes
This is Ipopt version 3.14.4, running with linear solver MUMPS 5.2.1.

Number of nonzeros in equality constraint Jacobian...:    10000
Number of nonzeros in inequality constraint Jacobian.:    10000
Number of nonzeros in Lagrangian Hessian.............:        0

Total number of variables............................:    10000
                     variables with only lower bounds:        0
                variables with lower and upper bounds:    10000
                     variables with only upper bounds:        0
Total number of equality constraints.................:        1
Total number of inequality constraints...............:        1
        inequality constraints with only lower bounds:        0
   inequality constraints with lower and upper bounds:        0
        inequality constraints with only upper bounds:        1

iter    objective    inf_pr   inf_du lg(mu)  ||d||  lg(rg) alpha_du alpha_pr  ls
   0  4.3537506e+02 2.66e-14 1.16e+01   0.0 0.00e+00    -  0.00e+00 0.00e+00   0
   1  3.7205990e+02 6.55e-15 2.52e+00   0.2 1.22e+02    -  9.03e-01 2.32e-01f  2
   2  3.4684473e+02 1.17e-15 1.57e+00  -0.5 1.16e+01    -  9.89e-01 1.00e+00f  1
   3  3.0340984e+02 1.11e-15 6.46e-01  -0.9 1.17e+00    -  9.96e-01 8.38e-01f  1
   4  2.6210350e+02 8.88e-16 7.05e-01  -1.5 1.29e+00    -  7.77e-01 9.67e-01f  1
   5  2.3713746e+02 2.11e-15 9.71e-01  -1.3 9.73e-01    -  1.00e+00 9.96e-01f  1
   6  2.1581609e+02 1.11e-16 3.27e-01  -1.4 1.79e-01    -  1.00e+00 8.99e-01f  1
   7  1.8208899e+02 3.33e-16 5.21e-01  -1.7 2.34e-01    -  1.00e+00 9.62e-01f  1
   8  1.5339436e+02 3.89e-16 6.44e-01  -1.7 1.32e+00    -  1.00e+00 1.00e+00f  1
   9  1.6724091e+02 1.83e-15 5.15e-01  -1.4 2.86e+00    -  1.00e+00 1.00e+00f  1
iter    objective    inf_pr   inf_du lg(mu)  ||d||  lg(rg) alpha_du alpha_pr  ls
  10  1.5432579e+02 8.33e-16 2.89e-01  -1.5 1.05e+00    -  1.00e+00 1.00e+00f  1
  11  1.3063510e+02 9.44e-16 5.11e-01  -1.8 7.94e-01    -  1.00e+00 5.19e-01f  1
  12  1.0226912e+02 1.05e-15 5.11e-01  -2.0 3.43e-01    -  1.00e+00 9.30e-01f  1
  13  1.2294263e+02 5.55e-17 2.56e-01  -1.7 1.59e-01    -  1.00e+00 1.00e+00f  1
  14  1.0800104e+02 1.39e-15 2.48e-01  -1.8 3.15e-01    -  1.00e+00 9.77e-01f  1
  15  9.7853038e+01 5.55e-16 2.14e-01  -2.0 7.16e-01    -  9.95e-01 4.47e-01f  1
  16  8.9139326e+01 6.11e-16 2.18e-01  -2.0 1.19e+00    -  1.00e+00 7.55e-01f  1
  17  8.5789680e+01 5.00e-16 2.33e-01  -2.0 3.93e-01    -  1.00e+00 9.98e-01f  1
  18  7.3404423e+01 1.28e-15 1.96e-01  -2.2 3.94e-01    -  9.76e-01 1.00e+00f  1
  19  7.2841157e+01 8.33e-16 7.43e-02  -2.3 2.09e+00    -  1.00e+00 1.00e+00f  1
iter    objective    inf_pr   inf_du lg(mu)  ||d||  lg(rg) alpha_du alpha_pr  ls
  20  6.6326353e+01 2.78e-16 1.06e-01  -2.5 1.98e+00    -  1.00e+00 1.00e+00f  1
  21  7.8092990e+01 1.11e-16 1.97e-01  -2.2 1.14e+00    -  1.00e+00 1.00e+00f  1
  22  7.2286259e+01 5.00e-16 1.45e-01  -2.3 3.50e-01    -  1.00e+00 1.00e+00f  1
  23  7.1295205e+01 1.11e-15 1.27e-01  -2.3 8.45e-01    -  1.00e+00 1.00e+00h  1
  24  1.1360866e+02 2.78e-16 2.47e+00  -2.0 4.39e-01    -  1.00e+00 1.00e+00H  1
  25  8.4066840e+01 3.89e-16 6.42e-02  -2.0 1.45e+02    -  5.02e-01 1.00e+00f  1
  26  7.8728805e+01 1.33e-15 7.17e-02  -2.1 1.25e+02    -  1.00e+00 9.51e-01h  1
  27  7.7990239e+01 2.00e-15 5.87e-02  -2.1 6.35e+00    -  1.00e+00 1.00e+00h  1
  28  7.1828480e+01 1.39e-15 6.02e-02  -2.3 4.05e-01    -  8.84e-01 7.62e-01f  1
  29  6.9164532e+01 1.33e-15 3.51e-02  -2.3 4.25e-01    -  1.00e+00 6.50e-01f  1
iter    objective    inf_pr   inf_du lg(mu)  ||d||  lg(rg) alpha_du alpha_pr  ls
  30  6.7144430e+01 5.55e-17 7.25e-02  -2.3 3.94e-01    -  1.00e+00 9.87e-01f  1
  31  6.6369869e+01 1.28e-15 7.60e-02  -2.3 3.42e-01    -  1.00e+00 9.97e-01f  1
  32  6.0736147e+01 2.78e-16 5.73e-02  -2.5 4.36e-01    -  9.48e-01 8.79e-01f  1
  33  5.7586524e+01 1.67e-16 3.51e-02  -2.6 8.09e-01    -  1.00e+00 1.00e+00f  1
  34  6.5937445e+01 1.22e-15 8.39e-02  -2.4 7.33e-01    -  9.53e-01 1.00e+00f  1
  35  6.1908576e+01 1.72e-15 3.55e-02  -2.5 3.54e-01    -  1.00e+00 1.00e+00f  1
  36  6.0802777e+01 3.33e-16 4.75e-02  -2.5 2.93e-01    -  1.00e+00 1.00e+00h  1
  37  6.0062687e+01 1.67e-16 5.86e-02  -2.5 3.31e-01    -  1.00e+00 1.00e+00f  1
  38  5.8544745e+01 2.22e-16 3.71e-02  -2.6 5.96e-01    -  8.65e-01 3.90e-01f  1
  39  5.4695393e+01 1.28e-15 4.18e-02  -2.8 6.71e-01    -  9.99e-01 5.63e-01f  1
iter    objective    inf_pr   inf_du lg(mu)  ||d||  lg(rg) alpha_du alpha_pr  ls
  40  5.3229651e+01 9.99e-16 4.89e-02  -2.7 5.85e-01    -  9.53e-01 5.44e-01f  1
  41  5.2453321e+01 1.05e-15 1.52e-01  -2.7 7.20e-01    -  6.41e-01 5.53e-01f  1
  42  5.6205387e+01 2.22e-16 4.52e-01  -2.5 2.13e+01    -  3.44e-01 4.46e-01f  2
  43  5.5333348e+01 7.22e-16 9.82e-02  -2.7 2.19e+01    -  4.92e-01 2.47e-01h  1
  44  5.2550172e+01 1.67e-16 2.27e-01  -2.7 1.70e+01    -  1.00e+00 8.88e-01h  1
  45  5.2484540e+01 7.77e-16 3.29e-01  -2.7 7.98e+00    -  9.70e-01 1.00e+00h  1
  46  5.2456311e+01 4.44e-16 4.69e-02  -2.7 1.65e+01    -  5.01e-01 6.10e-01h  1
  47  5.2466023e+01 8.33e-16 2.42e-02  -2.7 1.65e+01    -  1.00e+00 7.69e-01h  1
  48  5.2324645e+01 1.17e-15 3.79e-02  -2.7 5.10e+00    -  9.02e-01 4.13e-01h  1
  49  5.2211074e+01 8.33e-16 9.75e-02  -2.7 2.99e+00    -  1.00e+00 5.41e-01h  1
iter    objective    inf_pr   inf_du lg(mu)  ||d||  lg(rg) alpha_du alpha_pr  ls
  50  4.9843410e+01 7.77e-16 4.57e-02  -2.8 8.25e-01    -  1.00e+00 1.00e+00h  1
  51  4.7593768e+01 0.00e+00 5.09e-02  -2.9 2.68e-01    -  1.00e+00 1.00e+00h  1
  52  5.2982336e+01 1.11e-16 3.31e-02  -2.7 9.75e-01    -  6.30e-01 1.00e+00f  1
  53  5.0201919e+01 8.88e-16 3.35e-02  -2.8 1.15e+00    -  1.00e+00 7.52e-01h  1
  54  5.4605518e+01 1.11e-16 1.61e-01  -2.6 3.11e+00    -  1.00e+00 6.26e-01f  1
  55  5.2892433e+01 1.22e-15 1.04e-01  -2.7 2.87e+00    -  6.28e-01 8.62e-01f  1
  56  5.2223394e+01 2.78e-16 2.52e-02  -2.7 9.16e+00    -  5.85e-01 1.00e+00h  1
  57  5.2289025e+01 9.99e-16 3.43e-02  -2.7 1.03e+01    -  1.00e+00 1.00e+00h  1
  58  5.2368243e+01 5.55e-17 1.56e-02  -2.7 8.96e-01    -  5.12e-01 2.56e-01f  2
  59  5.0583054e+01 1.67e-16 1.14e-01  -2.8 5.42e-01    -  1.00e+00 7.68e-01f  1
iter    objective    inf_pr   inf_du lg(mu)  ||d||  lg(rg) alpha_du alpha_pr  ls
  60  5.0050027e+01 1.67e-16 3.26e-02  -2.8 5.81e+00    -  9.32e-01 1.00e+00h  1
  61  4.8632580e+01 4.44e-16 2.48e-02  -2.9 5.50e+00    -  1.00e+00 8.56e-01h  1
  62  5.5364176e+01 8.88e-16 9.15e-02  -2.6 3.38e-01    -  5.60e-01 1.00e+00f  1
  63  5.3063608e+01 2.22e-16 5.89e-02  -2.8 2.03e+00    -  1.00e+00 4.28e-01f  1
  64  5.1013347e+01 9.99e-16 5.48e-02  -2.8 7.38e-01    -  1.00e+00 6.01e-01h  1
  65  4.9720229e+01 4.44e-16 3.67e-02  -2.8 3.75e-01    -  9.19e-01 9.21e-01h  1
  66  4.9560935e+01 1.11e-15 1.92e-02  -2.8 1.45e+00    -  1.00e+00 1.00e+00h  1
  67  4.9502005e+01 2.22e-16 1.95e-02  -2.8 2.46e+00    -  1.00e+00 1.00e+00h  1
  68  4.9038839e+01 5.55e-16 1.65e-02  -2.8 2.03e-01    -  1.00e+00 1.00e+00h  1
  69  4.6907087e+01 1.11e-16 1.85e-02  -2.9 2.31e-01    -  1.00e+00 9.97e-01f  1
iter    objective    inf_pr   inf_du lg(mu)  ||d||  lg(rg) alpha_du alpha_pr  ls
  70  4.4396624e+01 8.88e-16 2.66e-02  -4.1 1.20e-01    -  9.86e-01 1.00e+00f  1
  71  4.3889747e+01 9.44e-16 2.40e-02  -3.1 3.12e-01    -  1.00e+00 8.91e-01f  1
  72  4.7657881e+01 5.55e-16 5.23e-02  -2.9 2.42e-01    -  1.00e+00 1.00e+00f  1
  73  4.5838563e+01 1.11e-15 1.81e-02  -3.0 2.76e-01    -  1.00e+00 1.00e+00h  1
  74  4.5555511e+01 2.78e-16 1.80e-02  -3.0 3.18e-01    -  1.00e+00 6.80e-01h  1
  75  4.5449324e+01 6.11e-16 1.60e-02  -3.0 2.50e-01    -  1.00e+00 1.00e+00f  1
  76  4.4316624e+01 8.88e-16 1.50e-02  -3.2 3.47e-01    -  9.55e-01 4.07e-01f  1
  77  4.2226791e+01 5.00e-16 2.48e-02  -4.5 6.66e-02    -  9.99e-01 1.00e+00f  1
  78  4.2323413e+01 5.00e-16 2.14e-02  -3.3 1.66e-01    -  1.00e+00 9.46e-01f  1
  79  4.2017744e+01 8.33e-16 1.85e-02  -3.4 9.18e-01    -  5.51e-01 2.18e-01f  1
iter    objective    inf_pr   inf_du lg(mu)  ||d||  lg(rg) alpha_du alpha_pr  ls
  80  4.2801956e+01 7.77e-16 1.57e-02  -3.1 1.03e+00    -  1.00e+00 3.23e-01f  1
  81  4.2557259e+01 4.44e-16 1.42e-02  -3.2 2.66e-01    -  1.00e+00 8.77e-01h  1
  82  4.2450407e+01 1.67e-15 1.81e-02  -3.2 2.56e-01    -  1.00e+00 6.63e-01f  1
  83  4.2358494e+01 1.05e-15 1.98e-02  -3.2 4.77e-01    -  1.00e+00 7.78e-01f  1
  84  4.2371957e+01 1.67e-15 3.20e-02  -3.2 7.75e-01    -  8.95e-01 4.26e-01h  1
  85  4.2418638e+01 3.89e-16 1.72e-02  -3.2 1.44e+00    -  3.26e-01 3.02e-01h  1
  86  4.2446451e+01 4.44e-16 1.57e-02  -3.2 1.56e+00    -  3.33e-01 2.56e-01h  1
  87  4.2449314e+01 7.22e-16 1.52e-02  -3.2 2.70e+00    -  3.99e-01 1.45e-01h  1
  88  4.2429376e+01 9.44e-16 1.71e-02  -3.2 2.99e+00    -  4.32e-01 1.49e-01h  1
  89  4.2400726e+01 1.05e-15 1.50e-02  -3.2 1.48e+00    -  5.51e-01 2.65e-01h  1
iter    objective    inf_pr   inf_du lg(mu)  ||d||  lg(rg) alpha_du alpha_pr  ls
  90  4.2365419e+01 9.44e-16 1.60e-02  -3.2 8.57e-01    -  1.00e+00 5.19e-01h  1
  91  4.2323517e+01 3.33e-16 1.66e-02  -3.2 9.09e-01    -  8.38e-01 4.27e-01h  1
  92  4.2292888e+01 1.11e-16 1.66e-02  -3.2 6.84e-01    -  1.00e+00 5.18e-01h  1
  93  4.2275592e+01 4.44e-16 3.02e-02  -3.2 6.78e-01    -  7.69e-01 2.78e-01h  2
  94  4.2233786e+01 1.94e-15 4.71e-02  -3.2 1.20e+00    -  7.06e-01 3.65e-01h  1
  95  4.2207355e+01 5.55e-17 7.66e-02  -3.2 4.66e+00    -  7.08e-01 2.38e-01f  2
  96  4.2183062e+01 9.99e-16 7.42e-02  -3.2 4.31e+00    -  7.05e-01 2.53e-01h  2
  97  4.2141566e+01 1.22e-15 7.10e-02  -3.2 1.43e+00    -  1.00e+00 7.70e-01h  1
  98  4.2025562e+01 8.33e-16 2.94e-02  -3.2 9.55e-01    -  9.60e-01 1.00e+00h  1
  99  4.5793246e+01 5.00e-16 2.65e-02  -2.9 3.06e+00    -  1.00e+00 1.00e+00f  1
iter    objective    inf_pr   inf_du lg(mu)  ||d||  lg(rg) alpha_du alpha_pr  ls
 100  4.4132533e+01 5.55e-17 1.14e-02  -3.0 2.15e+00    -  1.00e+00 1.00e+00h  1

Number of Iterations....: 100

                                   (scaled)                 (unscaled)
Objective...............:   4.4132532903543414e+01    4.4132532903543414e+01
Dual infeasibility......:   1.1355767808996112e-02    1.1355767808996112e-02
Constraint violation....:   5.5511151231257827e-17    5.5511151231257827e-17
Variable bound violation:   0.0000000000000000e+00    0.0000000000000000e+00
Complementarity.........:   1.3893347798495932e-03    1.3893347798495932e-03
Overall NLP error.......:   1.1355767808996112e-02    1.1355767808996112e-02


Number of objective function evaluations             = 122
Number of objective gradient evaluations             = 101
Number of equality constraint evaluations            = 122
Number of inequality constraint evaluations          = 122
Number of equality constraint Jacobian evaluations   = 101
Number of inequality constraint Jacobian evaluations = 101
Number of Lagrangian Hessian evaluations             = 0
Total seconds in IPOPT                               = 105.773

EXIT: Maximum Number of Iterations Exceeded.
